%chk=B2.chk
%nprocshared=36
%mem=128GB
# opt b3lyp/6-31g* scrf(smd, solvent=ethanol)

B-2

0 1
 C                  4.18604300   -0.98524300   -0.00011300
 C                  2.96567800   -0.09995500    0.00001700
 C                  1.72425900   -0.63647000   -0.00021300
 C                  0.45257800    0.05966800   -0.00017900
 C                 -0.74107900   -0.57941300   -0.00020500
 C                 -2.06437200    0.04041500   -0.00013700
 C                 -3.15287800   -0.76322500    0.00025300
 C                 -4.60417300   -0.38585100    0.00042700
 C                  3.26039100    1.37827300    0.00056700
 C                 -2.13317500    1.55026100   -0.00054100
 H                  4.81717900   -0.79121700   -0.87967300
 H                  4.81709800   -0.79164700    0.87959800
 H                  3.92209600   -2.04744500   -0.00037400
 H                  1.65237900   -1.72528000   -0.00049300
 H                  0.46912700    1.14646800   -0.00011300
 H                 -0.73541700   -1.67053800   -0.00030400
 H                 -2.96812600   -1.83863500    0.00044000
 H                 -4.77346600    0.69374800    0.00147500
 H                 -5.11489400   -0.80271000   -0.87923100
 H                 -5.11504200   -0.80447000    0.87913700
 H                  2.36300300    2.00075700    0.00007500
 H                  3.85900600    1.65371600    0.88055400
 H                  3.86032000    1.65418000   -0.87835500
 H                 -1.62726500    1.96404400   -0.88210200
 H                 -3.15868800    1.92367500   -0.00045200
 H                 -1.62692600    1.96459600    0.88056700

