%nproc=4
%mem=1175MB
# opt freq b3lyp/6-31g*

A-4

1 1
C 0   -8.880736   -0.779612   -0.152575
C 0   -7.682488   -0.165368   -0.089361
C 0   -6.518176   -0.841241   -0.093004
C 0   -5.318508   -0.234949   -0.031230
C 0  -10.103201   -0.209148   -0.153001
S 0  -10.293591    1.249522   -0.069441
C 0  -11.753424    1.229395   -0.073502
C 0  -12.213904   -0.024134   -0.161097
N 0  -11.229332   -0.879040   -0.218353
C 0  -12.581400    2.281830   -0.002747
C 0  -13.905416    2.056121   -0.018725
C 0  -14.378682    0.801515   -0.101374
C 0  -13.538225   -0.244420   -0.171853
C 0  -11.395662   -2.385783   -0.329549
C 0  -11.391231   -3.033626    1.059279
C 0   -4.157487   -0.915449   -0.037194
C 0   -2.952845   -0.315266    0.022341
C 0   -1.793899   -0.999932    0.003424
C 0   -0.511243   -0.575029    0.056457
S 0    0.529907   -1.619181   -0.031771
C 0    1.688240   -0.727437    0.002346
C 0    1.319493    0.553371    0.136908
N 0    0.051258    0.559189    0.179834
C 0    2.980317   -1.078777   -0.074155
C 0    3.911536   -0.112443   -0.016923
C 0    3.548683    1.174179    0.116779
C 0    2.251862    1.517616    0.195350
C 0   -0.658954    1.840662    0.378868
C 0   -1.041621    2.496926   -0.953427
H 0   -8.840468   -1.880262   -0.205287
H 0   -7.628072    0.934533   -0.032270
H 0   -6.545506   -1.943617   -0.149922
H 0   -5.286099    0.867215    0.025697
H 0  -12.204572    3.316554    0.068374
H 0  -14.607406    2.904953    0.039454
H 0  -15.468293    0.628922   -0.108785
H 0  -13.955228   -1.261352   -0.231505
H 0  -12.342270   -2.637892   -0.859006
H 0  -10.604137   -2.828495   -0.974967
H 0  -11.518053   -4.138250    0.987179
H 0  -10.434724   -2.834964    1.594010
H 0  -12.221414   -2.634322    1.685843
H 0   -4.202697   -2.017216   -0.094850
H 0   -2.962379    0.779013    0.072843
H 0   -1.957096   -2.094853   -0.081148
H 0    3.293051   -2.131654   -0.181131
H 0    4.980556   -0.377037   -0.079750
H 0    4.324902    1.957079    0.159307
H 0    1.994276    2.582888    0.294337
H 0   -1.519864    1.721040    1.068841
H 0   -0.042766    2.561072    0.963329
H 0   -1.668610    1.826187   -1.582161
H 0   -1.611305    3.439874   -0.786852
H 0   -0.132345    2.748925   -1.545875

