%nprocshared=32
%mem=128GB
# td=(nstates=150) PBE/def2TZVP scrf(smd, solvent=ethanol)

A-1

1 1
 C                 -1.25921400    0.21669800   -0.03936700
 C                  0.00000300    0.82893500   -0.00012200
 C                  1.25920900    0.21668400    0.03924900
 N                  2.43346400    0.90484800    0.14599800
 S                 -1.55756100   -1.51215200    0.05388200
 C                 -3.29766500   -1.25882400   -0.02728300
 C                 -3.58990400    0.10886600   -0.11829900
 N                 -2.43347400    0.90486300   -0.14610600
 S                  1.55754900   -1.51217100   -0.05392300
 C                  3.29765700   -1.25885000    0.02730400
 C                  3.58990000    0.10884200    0.11825100
 C                 -4.30157100   -2.22442200   -0.00362400
 C                 -5.62464500   -1.79212500   -0.06697500
 C                 -5.92564300   -0.42568700   -0.14900900
 C                 -4.92039400    0.53827400   -0.17427200
 C                  4.30156300   -2.22445000    0.00371800
 C                  5.62463500   -1.79214900    0.06706600
 C                  5.92563500   -0.42570700    0.14902100
 C                  4.92038400    0.53825800    0.17421300
 C                 -2.51034800    2.37352900   -0.25722600
 C                 -2.56643300    3.07378600    1.10152200
 C                  2.51033900    2.37349700    0.25729900
 C                  2.56650800    3.07392900   -1.10135700
 H                  0.00001400    1.90904000   -0.00021400
 H                 -4.06057600   -3.28031300    0.06397100
 H                 -6.42723800   -2.52213200   -0.04909400
 H                 -6.96205600   -0.10651400   -0.19134200
 H                 -5.17674800    1.59021300   -0.22813000
 H                  4.06056600   -3.28034500   -0.06381500
 H                  6.42723000   -2.52215600    0.04923100
 H                  6.96204800   -0.10653200    0.19133900
 H                  5.17673300    1.59020100    0.22801900
 H                 -1.65748800    2.70848900   -0.85212800
 H                 -3.39811500    2.59717400   -0.85221500
 H                 -3.44118500    2.75206400    1.67457200
 H                 -1.67383800    2.86335600    1.69908200
 H                 -2.63423000    4.15636400    0.95430200
 H                  1.65743600    2.70837900    0.85218300
 H                  3.39807400    2.59705900    0.85237000
 H                  3.44133400    2.75234400   -1.67436800
 H                  1.67398800    2.86351000   -1.69903300
 H                  2.63421400    4.15649300   -0.95399000

