%chk=/home/zcwang/Gaussian16_AVX2/Cal/B-1/Linux-B1.chk
%nprocshared=16
%mem=4400MB
# td=(nstates=100) b3lyp/6-311+g(2d,p) scrf(smd, solvent=ethanol)

B-1

0 1
 C                -13.19324700   -1.96518000    0.35751400
 C                -14.15023400   -1.36629700   -0.66683700
 C                -14.19793000    0.14588600   -0.46998500
 C                -12.83988600    0.78111900   -0.26594200
 C                -11.69919300    0.06911700   -0.02053500
 C                -11.73425400   -1.46329400    0.19794000
 C                -10.43464000    0.80863800    0.02791500
 C                 -9.14769800    0.36848600    0.05193400
 C                 -7.97097800    1.21881300    0.06402300
 C                 -6.73847900    0.61877300    0.06999200
 C                 -5.44584500    1.23801500    0.07820900
 C                 -4.28032800    0.52597700    0.08121000
 C                 -2.94260100    1.06362700    0.08600900
 C                 -1.88552200    0.18503900    0.08690000
 C                 -0.48836200    0.47987000    0.08838200
 C                  0.48836400   -0.47987900    0.08838100
 C                  1.88552300   -0.18504900    0.08690100
 C                  2.94260300   -1.06363600    0.08601000
 C                  4.28033000   -0.52598400    0.08121000
 C                  5.44584700   -1.23802200    0.07820500
 C                  6.73848000   -0.61877800    0.06998600
 C                  7.97098000   -1.21881600    0.06401600
 C                  9.14769900   -0.36848600    0.05192600
 C                 10.43464100   -0.80863600    0.02791100
 C                 11.69919300   -0.06911200   -0.02053900
 C                 11.73424800    1.46329900    0.19793500
 C                -11.01460000   -1.85386800    1.51323400
 C                -11.08757700   -2.20925600   -0.99637700
 C                -12.87892700    2.29364300   -0.39888500
 C                 13.19323800    1.96518700    0.35752500
 C                 14.15023700    1.36630800   -0.66681700
 C                 14.19793400   -0.14587500   -0.46996900
 C                 12.83988900   -0.78111100   -0.26593900
 C                 11.01457600    1.85387000    1.51322000
 C                 11.08758200    2.20925700   -0.99638900
 C                 12.87893200   -2.29363500   -0.39888300
 C                  8.15656300   -2.71718000    0.06849800
 C                  2.76950700   -2.56424200    0.08878800
 C                 -2.76950400    2.56423300    0.08879000
 C                 -8.15655700    2.71717700    0.06850300
 H                -13.55224000   -1.70444400    1.36372200
 H                -13.19179100   -3.06158700    0.30296200
 H                -15.15314800   -1.79826800   -0.56305300
 H                -13.81309100   -1.59775500   -1.68518700
 H                -14.83673200    0.39263700    0.39554500
 H                -14.68517000    0.63129800   -1.32864500
 H                -10.55320900    1.88625400   -0.00012600
 H                 -8.93157100   -0.69442400    0.04825300
 H                 -6.72718800   -0.47229400    0.06659500
 H                 -5.39419000    2.32332900    0.08054500
 H                 -4.35407300   -0.56240700    0.07851100
 H                 -2.13643400   -0.87672900    0.08526300
 H                 -0.17247100    1.52170000    0.08852400
 H                  0.17247200   -1.52170900    0.08852100
 H                  2.13643500    0.87672000    0.08526700
 H                  4.35407400    0.56240000    0.07851400
 H                  5.39419300   -2.32333500    0.08053800
 H                  6.72718800    0.47228900    0.06658800
 H                  8.93156800    0.69442300    0.04824000
 H                 10.55321300   -1.88625200   -0.00012300
 H                -11.41656000   -1.28058400    2.35641200
 H                -11.18396500   -2.91813300    1.72001300
 H                 -9.93616000   -1.69087100    1.48858700
 H                -10.06227500   -1.88498000   -1.18780700
 H                -11.06722600   -3.28877900   -0.80027400
 H                -11.65313500   -2.04558300   -1.91991900
 H                -13.91376400    2.64896000   -0.35063500
 H                -12.32451000    2.80958300    0.39213900
 H                -12.46877700    2.63323500   -1.36007500
 H                 13.19178000    3.06159400    0.30297600
 H                 13.55222200    1.70445000    1.36373700
 H                 15.15314900    1.79828100   -0.56302200
 H                 13.81310400    1.59776800   -1.68517000
 H                 14.83672700   -0.39262700    0.39556700
 H                 14.68518300   -0.63128500   -1.32862500
 H                 11.18393200    2.91813600    1.71999900
 H                  9.93613700    1.69086700    1.48855800
 H                 11.41652700    1.28058900    2.35640300
 H                 10.06228300    1.88497800   -1.18783000
 H                 11.06722600    3.28878100   -0.80028800
 H                 11.65315000    2.04558500   -1.91992600
 H                 13.91377100   -2.64895100   -0.35063900
 H                 12.32452100   -2.80957700    0.39214400
 H                 12.46877700   -2.63322900   -1.36007100
 H                  8.74408700   -3.03645700    0.93873000
 H                  7.20914600   -3.25794600    0.09304700
 H                  8.70422100   -3.04723200   -0.82367700
 H                  3.24803600   -3.01107500    0.96953400
 H                  1.72147000   -2.86802600    0.09270500
 H                  3.24238500   -3.01383100   -0.79361100
 H                 -3.24239600    3.01382500   -0.79360000
 H                 -3.24801900    3.01106300    0.96954600
 H                 -1.72146600    2.86801600    0.09269200
 H                 -7.20914000    3.25794100    0.09306100
 H                 -8.70420800    3.04723000   -0.82367700
 H                 -8.74408900    3.03645500    0.93873000

