%nproc=3
%mem=1500MB
# opt freq b3lyp/6-31g*

A-1

1 1
 C                 -6.93070000    5.92869000   -2.90646000
 C                 -5.70256000    5.69827000   -2.32983000
 C                 -5.24562000    4.57460000   -1.84914000
 N                 -4.07694000    4.38386000   -1.35556000
 S                 -8.14282000    5.02015000   -3.15060000
 C                 -9.07896000    6.14383000   -3.38977000
 C                 -8.41751000    7.26939000   -3.69757000
 N                 -7.14517000    7.15218000   -3.39362000
 S                 -6.03324000    3.33171000   -1.75167000
 C                 -4.95083000    2.58272000   -1.06182000
 C                 -3.81873000    3.26001000   -0.89763300
 C                -10.37110000    5.96464000   -3.57982000
 C                -11.11950000    7.03303000   -3.84101000
 C                -10.49830000    8.20444000   -4.10721000
 C                 -9.15944000    8.28462000   -4.14397000
 C                 -5.10751000    1.32710000   -0.59417300
 C                 -4.07592000    0.68299300   -0.06675500
 C                 -2.91877000    1.34043000    0.13038100
 C                 -2.80925000    2.57341000   -0.31994500
 C                 -6.19653000    8.37943000   -3.56106000
 C                 -6.14775000    9.31865000   -2.34612000
 C                 -2.95982000    5.36905000   -1.26366000
 C                 -1.98978000    5.45432000   -2.43800000
 H                 -4.96794000    6.57491000   -2.32400000
 H                -10.85090000    4.92957000   -3.45027000
 H                -12.17450000    6.92573000   -3.85243000
 H                -11.12590000    8.98199000   -4.42592000
 H                 -8.67764000    9.20849000   -4.45665000
 H                 -6.13105000    0.88856100   -0.71465300
 H                 -4.11185000   -0.37654200    0.17746800
 H                 -2.04530000    0.85064900    0.56348600
 H                 -1.79519000    2.96526000   -0.17634800
 H                 -5.20188000    7.99012000   -3.91679000
 H                 -6.55458000    8.99246000   -4.45217000
 H                 -6.94330000    9.19272000   -1.59586000
 H                 -5.19781000    9.33388000   -1.78987000
 H                 -6.16632000   10.34520000   -2.79603000
 H                 -3.40325000    6.34102000   -0.92760100
 H                 -2.24992000    5.13422000   -0.41287600
 H                 -1.79120000    4.36870000   -2.84855000
 H                 -2.52562000    6.06728000   -3.21742000
 H                 -1.10367000    6.04398000   -2.35315000

