# SP Test

[No Title]

  +1  0
C 0   -6.930700    5.928690   -2.906460
C 0   -5.702560    5.698270   -2.329830
C 0   -5.245620    4.574600   -1.849140
N 0   -4.076940    4.383860   -1.355560
S 0   -8.142820    5.020150   -3.150600
C 0   -9.078960    6.143830   -3.389770
C 0   -8.417510    7.269390   -3.697570
N 0   -7.145170    7.152180   -3.393620
S 0   -6.033240    3.331710   -1.751670
C 0   -4.950830    2.582720   -1.061820
C 0   -3.818730    3.260010   -0.897633
C 0  -10.371100    5.964640   -3.579820
C 0  -11.119500    7.033030   -3.841010
C 0  -10.498300    8.204440   -4.107210
C 0   -9.159440    8.284620   -4.143970
C 0   -5.107510    1.327100   -0.594173
C 0   -4.075920    0.682993   -0.066755
C 0   -2.918770    1.340430    0.130381
C 0   -2.809250    2.573410   -0.319945
C 0   -6.196530    8.379430   -3.561060
C 0   -6.147750    9.318650   -2.346120
C 0   -2.959820    5.369050   -1.263660
C 0   -1.989780    5.454320   -2.438000
H 0   -4.967940    6.574910   -2.324000
H 0  -10.850900    4.929570   -3.450270
H 0  -12.174500    6.925730   -3.852430
H 0  -11.125900    8.981990   -4.425920
H 0   -8.677640    9.208490   -4.456650
H 0   -6.131050    0.888561   -0.714653
H 0   -4.111850   -0.376542    0.177468
H 0   -2.045300    0.850649    0.563486
H 0   -1.795190    2.965260   -0.176348
H 0   -5.201880    7.990120   -3.916790
H 0   -6.554580    8.992460   -4.452170
H 0   -6.943300    9.192720   -1.595860
H 0   -5.197810    9.333880   -1.789870
H 0   -6.166320   10.345200   -2.796030
H 0   -3.403250    6.341020   -0.927601
H 0   -2.249920    5.134220   -0.412876
H 0   -1.791200    4.368700   -2.848550
H 0   -2.525620    6.067280   -3.217420
H 0   -1.103670    6.043980   -2.353150

