%nprocshared=32
%mem=128GB
# td=(nstates=150) wB97XD/def2TZVP scrf(smd, solvent=ethanol)

A-3

1 1
 C                 -2.42804100    1.06652400   -0.25317600
 C                 -1.16370100    0.47934300   -0.18892200
 C                  0.04180500    1.17391600   -0.25681600
 C                  1.28645000    0.54133200   -0.18104600
 C                 -3.63236400    0.36092900   -0.17210300
 S                 -3.73168200   -1.38124000    0.07285300
 C                 -5.49238100   -1.31615000    0.07934600
 C                 -5.93741400    0.00252300   -0.10246000
 N                 -4.87872600    0.90962300   -0.26158700
 C                 -6.38634900   -2.37118900    0.24069800
 C                 -7.75121400   -2.08524500    0.22360800
 C                 -8.20176500   -0.77040600    0.05133000
 C                 -7.30698600    0.28573400   -0.11152500
 C                 -5.10927700    2.34992800   -0.47364100
 C                 -5.16458300    3.14277600    0.83325100
 C                  2.49950600    1.22923000   -0.20368700
 C                  3.82211000    0.76405800   -0.12709100
 S                  5.09400200    1.94418700    0.17203000
 C                  6.32617900    0.69371100    0.14037400
 C                  5.74078300   -0.56155500   -0.08826600
 N                  4.34644500   -0.48864400   -0.25637600
 C                  7.70209200    0.83500100    0.30954700
 C                  8.49305900   -0.31093000    0.25082600
 C                  7.91391400   -1.56717300    0.02829600
 C                  6.53827300   -1.70956500   -0.14232700
 C                  3.57345400   -1.67863000   -0.65123800
 C                  3.11126000   -2.52211200    0.53871900
 H                 -2.48023200    2.14496600   -0.35954300
 H                 -1.10176400   -0.60405000   -0.07596400
 H                  0.01489500    2.25675300   -0.37061600
 H                  1.27115500   -0.53799000   -0.06190200
 H                 -6.03095600   -3.38737200    0.37792700
 H                 -8.46785000   -2.89047800    0.34878900
 H                 -9.26726500   -0.56387600    0.04669400
 H                 -7.67555800    1.29813100   -0.23269000
 H                 -4.32098800    2.71824200   -1.13380700
 H                 -6.04347000    2.44227700   -1.03181900
 H                 -4.22182500    3.06670500    1.38368100
 H                 -5.35037900    4.19920600    0.61451500
 H                 -5.96892300    2.78077100    1.48096100
 H                  2.42607400    2.31429000   -0.22967600
 H                  8.14444900    1.81075300    0.48252500
 H                  9.56704500   -0.22672000    0.38160600
 H                  8.54404000   -2.45002800   -0.00972000
 H                  6.10877600   -2.69178500   -0.30376200
 H                  2.73549400   -1.33414400   -1.25947200
 H                  4.21608700   -2.26428600   -1.31380700
 H                  3.96372000   -2.88406400    1.12124800
 H                  2.46477900   -1.95180000    1.21297500
 H                  2.55269200   -3.39180300    0.17730600

