%nprocshared=4
%mem=1175MB
# opt freq b3lyp/6-311+g(2d,p) scrf=(smd,solvent=ethanol)

A-2

1 1
 C                 -1.19059600    1.11033100   -0.25218900
 C                  0.06487000    0.50376000   -0.17303300
 C                  1.26058200    1.21734300   -0.20807900
 C                  2.59340900    0.77423400   -0.13576800
 C                 -2.40555300    0.42172400   -0.16655400
 S                  3.84130600    1.97629700    0.16666400
 C                  5.09778000    0.75089100    0.12131700
 C                  4.53608900   -0.51379000   -0.11272300
 N                  3.13881100   -0.46610500   -0.27430900
 S                 -2.53181900   -1.31164700    0.12269400
 C                 -4.29177600   -1.22561100    0.09408000
 C                 -4.71538500    0.09412200   -0.12448100
 N                 -3.64125500    0.98405700   -0.28636600
 C                 -5.20152300   -2.26564900    0.26387000
 C                 -6.56176000   -1.96203200    0.21685300
 C                 -6.99170900   -0.64557300    0.00749600
 C                 -6.08052200    0.39505000   -0.16359200
 C                  6.47152300    0.91838000    0.28575400
 C                  7.28357600   -0.21175200    0.21610000
 C                  6.72791700   -1.47785100   -0.01227900
 C                  5.35482600   -1.64613700   -0.17790000
 C                 -3.85022900    2.42230700   -0.53755600
 C                 -3.91532400    3.24770700    0.74840800
 C                  2.38743000   -1.66962600   -0.67261200
 C                  1.94906500   -2.52976200    0.51436100
 H                 -1.22750000    2.18728800   -0.37663100
 H                  0.09027000   -0.57368000   -0.04361300
 H                  1.16804000    2.30067500   -0.24051200
 H                 -4.86230300   -3.28298000    0.43014200
 H                 -7.29119400   -2.75471800    0.34775000
 H                 -8.05410000   -0.42554900   -0.02020800
 H                 -6.43378800    1.40892600   -0.31420000
 H                  6.89578900    1.90127700    0.46324300
 H                  8.35629700   -0.10785100    0.34281900
 H                  7.37510000   -2.34779900   -0.05885700
 H                  4.94408800   -2.63552700   -0.34415400
 H                 -3.04776900    2.76385500   -1.19497600
 H                 -4.77458700    2.51159700   -1.11210200
 H                 -4.08440100    4.30038100    0.50028700
 H                 -4.73409600    2.91244900    1.39234400
 H                 -2.98230300    3.17445500    1.31561900
 H                  1.53989000   -1.33861100   -1.27555200
 H                  3.03853500   -2.23772200   -1.34193300
 H                  1.29695300   -1.97793300    1.19871300
 H                  1.40428600   -3.40667900    0.14967900
 H                  2.81197300   -2.88030700    1.08830200

