%nproc=4
%mem=1175MB
# opt freq b3lyp/6-31g*

A-2

1 1
C 0   -8.738380   -1.073800    0.031757
C 0   -7.528770   -0.478983    0.103956
C 0   -6.371290   -1.153670   -0.034335
C 0   -5.087150   -0.731001    0.009817
C 0   -9.953940   -0.497832    0.140319
S 0   -4.056310   -1.761160   -0.228859
C 0   -2.893710   -0.878023   -0.149691
C 0   -3.251310    0.382454    0.130381
N 0   -4.516900    0.385177    0.225576
S 0  -10.125700    0.949617    0.357131
C 0  -11.585500    0.949342    0.345500
C 0  -12.062200   -0.288782    0.169732
N 0  -11.088900   -1.151220    0.057635
C 0  -12.399600    2.005590    0.486380
C 0  -13.726400    1.800440    0.445209
C 0  -14.215900    0.562525    0.264205
C 0  -13.389200   -0.487471    0.124506
C 0   -1.607480   -1.220580   -0.313881
C 0   -0.670066   -0.265863   -0.195814
C 0   -1.021350    1.000460    0.083261
C 0   -2.312340    1.334770    0.249061
C 0  -11.275600   -2.646080   -0.145261
C 0  -11.259000   -2.994480   -1.637570
C 0   -5.210870    1.641300    0.583185
C 0   -5.653220    2.426140   -0.658074
H 0   -8.723750   -2.162240   -0.142414
H 0   -7.504360    0.601479    0.268415
H 0   -6.535230   -2.234860   -0.225774
H 0  -12.009100    3.027270    0.632776
H 0  -14.417100    2.653010    0.557499
H 0  -15.307500    0.407701    0.227408
H 0  -13.819700   -1.488740   -0.029628
H 0   -1.304360   -2.257170   -0.540599
H 0    0.394317   -0.523247   -0.328555
H 0   -0.240354    1.774420    0.174165
H 0   -2.559940    2.384640    0.466810
H 0  -10.499700   -3.224180    0.405065
H 0  -12.233000   -2.987390    0.309515
H 0  -11.400500   -4.088270   -1.795980
H 0  -12.075000   -2.462240   -2.178010
H 0  -10.292600   -2.704530   -2.109040
H 0   -6.039020    1.453990    1.297970
H 0   -4.565690    2.301120    1.206390
H 0   -6.310960    1.821040   -1.320980
H 0   -6.211840    3.346840   -0.372245
H 0   -4.771570    2.737070   -1.264100

