%nprocshared=32
%mem=128GB
# td=(nstates=150) b3lyp/6-311+g(2d,p) scrf(smd, solvent=ethanol)

A-4

1 1
 C                 -3.66371200   -1.05194800   -0.11155700
 C                 -2.38963800   -0.47997900   -0.08345800
 C                 -1.19496700   -1.19500400   -0.06404100
 C                  0.05834900   -0.57832200   -0.03561300
 C                 -4.85534400   -0.32376400   -0.12489200
 S                 -4.92666200    1.43671100   -0.06061800
 C                 -6.68823300    1.40202900   -0.08329200
 C                 -7.15495500    0.07935700   -0.13945200
 N                 -6.11185800   -0.85726800   -0.18359000
 C                 -7.56515300    2.48270300   -0.04891600
 C                 -8.93495600    2.22022000   -0.06579400
 C                 -9.40707200    0.90276000   -0.11322400
 C                 -8.52936100   -0.17953300   -0.14882000
 C                 -6.36628400   -2.30687200   -0.24831400
 C                 -6.46713700   -2.95588300    1.13325900
 C                  1.28216200   -1.24609100   -0.01605200
 C                  2.51112700   -0.58288900    0.01193800
 C                  3.74121500   -1.24434500   -0.00843500
 C                  5.05243900   -0.74902000    0.00880800
 S                  6.36259000   -1.86698700   -0.36529200
 C                  7.56298300   -0.60080600   -0.16552000
 C                  6.94101700    0.61235700    0.16984600
 N                  5.54483200    0.49529800    0.28326100
 C                  8.94627200   -0.69553500   -0.30211000
 C                  9.70836400    0.45414200   -0.10070300
 C                  9.09298200    1.66865700    0.22877000
 C                  7.70944500    1.76454500    0.36650000
 C                  4.73280900    1.62302700    0.77013900
 C                  4.28228200    2.56989200   -0.34423600
 H                 -3.73183100   -2.13482600   -0.11342800
 H                 -2.31024900    0.60798700   -0.07629400
 H                 -1.23761700   -2.28343400   -0.07261100
 H                  0.07915600    0.51297700   -0.02765500
 H                 -7.19293900    3.50135300   -0.00843700
 H                 -9.63820500    3.04628500   -0.03843400
 H                -10.47604200    0.71485500   -0.11970100
 H                 -8.91454400   -1.19267100   -0.17489400
 H                 -7.28920700   -2.44203600   -0.81661700
 H                 -5.57072800   -2.75749800   -0.84564700
 H                 -6.66635900   -4.02675800    1.02338100
 H                 -5.53664300   -2.83555600    1.69652200
 H                 -7.28005500   -2.51465200    1.71799500
 H                  1.27987100   -2.33528000   -0.02423200
 H                  2.47239000    0.50228000    0.01364300
 H                  3.69108200   -2.32676900   -0.10540400
 H                  9.41662700   -1.63929100   -0.55871000
 H                 10.78759400    0.40544000   -0.20350200
 H                  9.70030900    2.55585600    0.37729000
 H                  7.25128600    2.71614200    0.61118700
 H                  3.88711100    1.20263700    1.31688600
 H                  5.34278200    2.15492600    1.50515400
 H                  3.66871900    2.05490600   -1.08995400
 H                  3.69250000    3.38719100    0.08394100
 H                  5.14148800    3.00594600   -0.86258800

